proyfinal/src/viki/013/experimentInOfficeAgust.take6.output/649f89cf-68b2-43bf-9866-ab6ae7789968.als.dat
{'cnf.clauses': '118081',
 'cnf.totvars': '69608',
 'conflict literals': '6',
 'conflicts': '6',
 'decisions': '5309',
 'memused.mb': '15.41',
 'outcome': 'UNSAT',
 'propagations': '30063',
 'restarts': '1',
 'solver.msecs': 35,
 'task.msecs': 83}
