proyfinal/src/viki/013/experimentInOfficeAgust.take6.output/649f89cf-68b2-43bf-9866-ab6ae7789968.als.out
Reading from standard input... Use '--help' for help.
============================[ Problem Statistics ]=============================
|                                                                             |
|  Number of variables:         69608                                         |
|  Number of clauses:          118081                                         |
|  Parse time:                   0.03 s                                       |
|                                                                             |
============================[ Search Statistics ]==============================
| Conflicts |          ORIGINAL         |          LEARNT          | Progress |
|           |    Vars  Clauses Literals |    Limit  Clauses Lit/Cl |          |
===============================================================================
===============================================================================
restarts              : 1
conflicts             : 6              (171 /sec)
decisions             : 5309           (0.00 % random) (151673 /sec)
propagations          : 30063          (858869 /sec)
conflict literals     : 6              (0.00 % deleted)
Memory used           : 15.41 MB
CPU time              : 0.035003 s

UNSATISFIABLE
